# Objective value = 94
WA1n 0
WA1p 0
WA2n 1
WA2p 0
WB1n 0
WB1p 0
WB2n 0
WB2p 1
WC1n 0
WC1p 0
WC2n 0
WC2p 1
WD1n 2
WD1p 0
WE1n 0
WE1p 2
WF1n 0
WF1p 3
WF2n 0
WF2p 1
WG1n 4
WG1p 0
WH1n 9
WH1p 0
WH2n 1
WH2p 0
WI1n 0
WI1p 9
WI2n 0
WI2p 1
WJ1n 0
WJ1p 9
WJ2n 0
WJ2p 1
WK1n 32
WK1p 0
WK2n 1
WK2p 0
WT1n 6
WT1p 0
WT2n 1
WT2p 0
5 7
a 0
b 0
c 0
d 1
e 0
f 1
g 0
h 1
i 1
j 1
k 0
l 0
m 0
n 1
o 1
p 1
q 1
r 0
s 0
t 0
u 0
